n = 31;
lu = [|-803, 936
      |-665, -524
      |-341, 469
      |-474, 882
      |-912, 55
      |-883, 514
      |-756, -296
      |-285, 81
      |-845, 765
      |109, 453
      |-1, 844
      |-202, 270
      |-960, 149
      |585, 639
      |-703, 113
      |-942, 33
      |535, 622
      |-546, 765
      |-372, 752
      |-548, 933
      |-795, -48
      |-714, -277
      |-889, 115
      |-732, 529
      |-635, -63
      |-920, -78
      |-860, 926
      |-883, 176
      |-497, -238
      |-627, -3
      |-327, 530|];
